NAME : instances/clustered-mixed-tsp/instance-73.tsp
COMMENT : No Comment
TYPE : TSP
DIMENSION: 44
EDGE_WEIGHT_TYPE : EUC_2D
NODE_COORD_SECTION
1 2581 1337 
2 2458 1365 
3 2327 1189 
4 1652 2358 
5 1836 2425 
6 3028 1921 
7 1075 2382 
8 2341 1205 
9 2787 1882 
10 1070 2612 
11 2908 1721 
12 2033 1252 
13 3099 1600 
14 714 2289 
15 2780 957 
16 1667 2231 
17 2003 2404 
18 1807 2524 
19 1746 2249 
20 2470 1211 
21 2748 1095 
22 2453 1273 
23 1134 2620 
24 1803 2173 
25 2044 2176 
26 2797 2035 
27 1944 2240 
28 2165 1235 
29 2399 1469 
30 998 2310 
31 3167 1541 
32 2486 1235 
33 2426 1599 
34 2546 1341 
35 2181 1300 
36 2389 1380 
37 1674 2465 
38 1021 2659 
39 1717 2512 
40 2436 994 
41 2519 1286 
42 2231 1370 
43 2349 1034 
44 2878 1542 
EOF
